c 4 __LINUXTHREADS_OLD__
c 1 __UCLIBC_HAS_THREADS_NATIVE__
c 6 __UCLIBC_HAS_FLOATS__
c 2 __UCLIBC_HAS_XLOCALE__
c 7 __UCLIBC_HAS_LOCALE__
c 3 __DO_C99_MATH__
c 8 __LINUXTHREADS_NEW__
c 5 __UCLIBC_HAS_THREADS__
p cnf 8 1
-6 1 -4 -3 -2 -5 7 8 1
